predicate jacop_maximum(var int: m,array [int] of var int: x);
predicate jacop_cumulative(array [int] of var int: s,array [int] of var int: d,array [int] of var int: r,var int: b);
array [1..2] of int: X_INTRODUCED_92 = [1,-1];
var 0..100: X_INTRODUCED_0;
var 0..100: X_INTRODUCED_1;
var 0..100: X_INTRODUCED_2;
var 0..100: X_INTRODUCED_3;
var 0..100: X_INTRODUCED_4;
var 0..100: X_INTRODUCED_5;
var 0..100: X_INTRODUCED_6;
var 0..100: X_INTRODUCED_7;
var 0..100: X_INTRODUCED_8;
var 0..100: X_INTRODUCED_9;
var 0..100: X_INTRODUCED_10;
var 0..100: X_INTRODUCED_11;
var 0..100: X_INTRODUCED_12;
var 0..100: X_INTRODUCED_13;
var 0..100: X_INTRODUCED_14;
var 0..100: X_INTRODUCED_15;
var 0..100: X_INTRODUCED_16;
var 0..100: X_INTRODUCED_17;
var 0..100: X_INTRODUCED_18;
var 0..100: X_INTRODUCED_19;
var 0..100: X_INTRODUCED_20;
var 0..100: X_INTRODUCED_21;
var 0..100: X_INTRODUCED_22;
var 0..100: X_INTRODUCED_23;
var 0..100: X_INTRODUCED_24;
var 0..100: X_INTRODUCED_25;
var 0..100: X_INTRODUCED_26;
var 0..100: X_INTRODUCED_27;
var 1..101: X_INTRODUCED_85 ::var_is_introduced :: is_defined_var;
var 1..101: X_INTRODUCED_86 ::var_is_introduced :: is_defined_var;
var 1..101: X_INTRODUCED_87 ::var_is_introduced :: is_defined_var;
var 1..101: X_INTRODUCED_88 ::var_is_introduced :: is_defined_var;
var 1..101: X_INTRODUCED_90 ::var_is_introduced ;
array [1..28] of var 0..100: start_time:: output_array([1..28]) = [X_INTRODUCED_0,X_INTRODUCED_1,X_INTRODUCED_2,X_INTRODUCED_3,X_INTRODUCED_4,X_INTRODUCED_5,X_INTRODUCED_6,X_INTRODUCED_7,X_INTRODUCED_8,X_INTRODUCED_9,X_INTRODUCED_10,X_INTRODUCED_11,X_INTRODUCED_12,X_INTRODUCED_13,X_INTRODUCED_14,X_INTRODUCED_15,X_INTRODUCED_16,X_INTRODUCED_17,X_INTRODUCED_18,X_INTRODUCED_19,X_INTRODUCED_20,X_INTRODUCED_21,X_INTRODUCED_22,X_INTRODUCED_23,X_INTRODUCED_24,X_INTRODUCED_25,X_INTRODUCED_26,X_INTRODUCED_27];
array [1..12] of var 1..1: duration_add = [1,1,1,1,1,1,1,1,1,1,1,1];
array [1..16] of var 2..2: duration_mul = [2,2,2,2,2,2,2,2,2,2,2,2,2,2,2,2];
array [1..12] of var 1..1: resource_requirements_add = [1,1,1,1,1,1,1,1,1,1,1,1];
array [1..16] of var 1..1: resource_requirements_mul = [1,1,1,1,1,1,1,1,1,1,1,1,1,1,1,1];
array [1..12] of var int: start_time_add = [X_INTRODUCED_8,X_INTRODUCED_9,X_INTRODUCED_10,X_INTRODUCED_11,X_INTRODUCED_12,X_INTRODUCED_13,X_INTRODUCED_18,X_INTRODUCED_19,X_INTRODUCED_24,X_INTRODUCED_25,X_INTRODUCED_26,X_INTRODUCED_27];
array [1..16] of var int: start_time_mul = [X_INTRODUCED_0,X_INTRODUCED_1,X_INTRODUCED_2,X_INTRODUCED_3,X_INTRODUCED_4,X_INTRODUCED_5,X_INTRODUCED_6,X_INTRODUCED_7,X_INTRODUCED_14,X_INTRODUCED_15,X_INTRODUCED_16,X_INTRODUCED_17,X_INTRODUCED_20,X_INTRODUCED_21,X_INTRODUCED_22,X_INTRODUCED_23];
array [1..4] of var int: X_INTRODUCED_89 ::var_is_introduced  = [X_INTRODUCED_85,X_INTRODUCED_86,X_INTRODUCED_87,X_INTRODUCED_88];
constraint jacop_maximum(X_INTRODUCED_90,X_INTRODUCED_89);
constraint int_lin_le(X_INTRODUCED_92,[X_INTRODUCED_8,X_INTRODUCED_26],-1);
constraint int_lin_le(X_INTRODUCED_92,[X_INTRODUCED_9,X_INTRODUCED_27],-1);
constraint int_lin_le(X_INTRODUCED_92,[X_INTRODUCED_10,X_INTRODUCED_12],-1);
constraint int_lin_le(X_INTRODUCED_92,[X_INTRODUCED_11,X_INTRODUCED_13],-1);
constraint int_lin_le(X_INTRODUCED_92,[X_INTRODUCED_12,X_INTRODUCED_15],-1);
constraint int_lin_le(X_INTRODUCED_92,[X_INTRODUCED_12,X_INTRODUCED_16],-1);
constraint int_lin_le(X_INTRODUCED_92,[X_INTRODUCED_13,X_INTRODUCED_14],-1);
constraint int_lin_le(X_INTRODUCED_92,[X_INTRODUCED_13,X_INTRODUCED_17],-1);
constraint int_lin_le(X_INTRODUCED_92,[X_INTRODUCED_18,X_INTRODUCED_21],-1);
constraint int_lin_le(X_INTRODUCED_92,[X_INTRODUCED_18,X_INTRODUCED_22],-1);
constraint int_lin_le(X_INTRODUCED_92,[X_INTRODUCED_19,X_INTRODUCED_20],-1);
constraint int_lin_le(X_INTRODUCED_92,[X_INTRODUCED_19,X_INTRODUCED_23],-1);
constraint int_lin_le(X_INTRODUCED_92,[X_INTRODUCED_24,X_INTRODUCED_26],-1);
constraint int_lin_le(X_INTRODUCED_92,[X_INTRODUCED_25,X_INTRODUCED_27],-1);
constraint int_lin_le(X_INTRODUCED_92,[X_INTRODUCED_0,X_INTRODUCED_8],-2);
constraint int_lin_le(X_INTRODUCED_92,[X_INTRODUCED_1,X_INTRODUCED_8],-2);
constraint int_lin_le(X_INTRODUCED_92,[X_INTRODUCED_2,X_INTRODUCED_9],-2);
constraint int_lin_le(X_INTRODUCED_92,[X_INTRODUCED_3,X_INTRODUCED_9],-2);
constraint int_lin_le(X_INTRODUCED_92,[X_INTRODUCED_4,X_INTRODUCED_10],-2);
constraint int_lin_le(X_INTRODUCED_92,[X_INTRODUCED_5,X_INTRODUCED_10],-2);
constraint int_lin_le(X_INTRODUCED_92,[X_INTRODUCED_6,X_INTRODUCED_11],-2);
constraint int_lin_le(X_INTRODUCED_92,[X_INTRODUCED_7,X_INTRODUCED_11],-2);
constraint int_lin_le(X_INTRODUCED_92,[X_INTRODUCED_14,X_INTRODUCED_18],-2);
constraint int_lin_le(X_INTRODUCED_92,[X_INTRODUCED_15,X_INTRODUCED_18],-2);
constraint int_lin_le(X_INTRODUCED_92,[X_INTRODUCED_16,X_INTRODUCED_19],-2);
constraint int_lin_le(X_INTRODUCED_92,[X_INTRODUCED_17,X_INTRODUCED_19],-2);
constraint int_lin_le(X_INTRODUCED_92,[X_INTRODUCED_20,X_INTRODUCED_24],-2);
constraint int_lin_le(X_INTRODUCED_92,[X_INTRODUCED_21,X_INTRODUCED_24],-2);
constraint int_lin_le(X_INTRODUCED_92,[X_INTRODUCED_22,X_INTRODUCED_25],-2);
constraint int_lin_le(X_INTRODUCED_92,[X_INTRODUCED_23,X_INTRODUCED_25],-2);
constraint jacop_cumulative(start_time_add,duration_add,resource_requirements_add,1);
constraint jacop_cumulative(start_time_mul,duration_mul,resource_requirements_mul,1);
constraint int_lin_eq([1,-1],[X_INTRODUCED_12,X_INTRODUCED_85],-1):: defines_var(X_INTRODUCED_85);
constraint int_lin_eq([1,-1],[X_INTRODUCED_13,X_INTRODUCED_86],-1):: defines_var(X_INTRODUCED_86);
constraint int_lin_eq([1,-1],[X_INTRODUCED_26,X_INTRODUCED_87],-1):: defines_var(X_INTRODUCED_87);
constraint int_lin_eq([1,-1],[X_INTRODUCED_27,X_INTRODUCED_88],-1):: defines_var(X_INTRODUCED_88);
solve :: seq_search([int_search([X_INTRODUCED_90],first_fail,indomain_min,complete),int_search(start_time,first_fail,indomain_min,complete)]) minimize X_INTRODUCED_90;
